505650
493655
475302
475302
473390
473390
473390
473390
470442
465369
462195
444401
444401
444401
435696
431216
431216
416951
416951
412440
407025
407025
404688
404688
392911
388762
388762
388762
380080
370728
360384
356529
356529
356529
356529
356529
356529
356529
356529
356529
356529
356529
356529
350076
350076
350076
350076
350076
348945
342104
342104
342104
342104
342104
339563
339563
337411
337411
337411
337411
337411
337411
334112
334112
334112
334112
332096
328897
328897
321448
321448
321448
321448
317544
317544
317544
317544
317544
317544
317544
306557
306557
306557
306557
306557
306557
306557
306557
306557
306557
306557
297586
297586
295306
295306
295306
295306
295306
287961
287961
